
Gurobi 11.0.3 (linux64) logging started Fri Apr 17 00:18:33 2026

Set parameter LogFile to value "tree/results/ctmc/ctmc_depth-3_run-3/Full MIP/LogFile_FullModel.txt"
Gurobi Optimizer version 11.0.3 build v11.0.3rc0 (linux64 - "CentOS Linux 7 (Core)")

CPU model: Intel(R) Xeon(R) Platinum 8260 CPU @ 2.40GHz, instruction set [SSE2|AVX|AVX2|AVX512]
Thread count: 96 physical cores, 192 logical processors, using up to 32 threads

Optimize a model with 88709 rows, 62111 columns and 1073381 nonzeros
Model fingerprint: 0x5c05723a
Model has 8832 general constraints
Variable types: 35514 continuous, 26597 integer (26597 binary)
Coefficient statistics:
  Matrix range     [9e-04, 1e+04]
  Objective range  [9e-04, 1e+04]
  Bounds range     [1e+00, 1e+03]
  RHS range        [1e-04, 1e+03]

User MIP start produced solution with objective -129399 (0.32s)
Loaded user MIP start with objective -129399

Presolve added 8824 rows and 26496 columns
Presolve time: 1.96s
Presolved: 97533 rows, 88607 columns, 1126421 nonzeros
Presolved model has 26496 SOS constraint(s)
Variable types: 35514 continuous, 53093 integer (53093 binary)

Deterministic concurrent LP optimizer: primal simplex, dual simplex, and barrier
Showing barrier log only...

Root relaxation presolved: 97533 rows, 88607 columns, 1126421 nonzeros

Root barrier log...

Ordering time: 0.06s

Barrier statistics:
 Dense cols : 84
 AA' NZ     : 1.107e+06
 Factor NZ  : 3.467e+06 (roughly 100 MB of memory)
 Factor Ops : 1.353e+08 (less than 1 second per iteration)
 Threads    : 30

                  Objective                Residual
Iter       Primal          Dual         Primal    Dual     Compl     Time
   0  -1.32433307e+05  1.70163365e+09  1.10e+04 0.00e+00  8.05e+05     4s
   1  -8.21122384e+04  2.54258752e+09  1.19e+03 3.99e+01  1.81e+05     4s
   2  -5.90348308e+04  2.15047351e+09  1.24e+02 5.92e+00  2.62e+04     5s
   3  -1.08633682e+04  5.42378527e+08  1.23e+01 5.81e-01  3.53e+03     5s
   4  -1.09183864e+03  6.34346937e+07  1.21e+00 5.81e-02  3.71e+02     5s
   5  -1.08568363e+02  7.32877807e+06  1.21e-01 5.81e-03  4.01e+01     5s
   6  -1.02404821e+01  7.43958401e+05  1.23e-02 5.84e-04  4.01e+00     6s
   7  -3.99076832e-01  7.91456425e+04  1.33e-03 6.22e-05  4.26e-01     6s
   8   6.77203269e-01  1.29174557e+04  1.83e-04 1.01e-05  6.95e-02     6s
   9   9.67841329e-01  1.44828790e+03  3.03e-05 9.80e-07  7.75e-03     6s
  10   9.96493699e-01  1.46488877e+02  3.01e-06 9.85e-08  7.79e-04     7s
  11   9.99649250e-01  1.56850273e+01  2.98e-07 9.86e-09  7.86e-05     7s
  12   9.99964925e-01  2.46851333e+00  2.98e-08 9.86e-10  7.86e-06     7s
  13   9.99996492e-01  1.14822543e+00  2.95e-09 9.87e-11  7.93e-07     7s
  14   9.99999649e-01  1.01482254e+00  2.95e-10 9.87e-12  7.93e-08     8s
  15   9.99999965e-01  1.00149612e+00  2.94e-11 9.87e-13  8.00e-09     8s
  16   9.99999996e-01  1.00014961e+00  3.07e-12 9.87e-14  8.00e-10     8s
  17   1.00000000e+00  1.00001496e+00  5.68e-13 9.87e-15  8.00e-11     9s
  18   1.00000000e+00  1.00000150e+00  4.26e-13 1.42e-14  8.00e-12     9s
  19   1.00000000e+00  1.00000015e+00  4.41e-13 9.88e-17  8.00e-13     9s
  20   1.00000000e+00  1.00000001e+00  4.55e-13 9.88e-18  8.00e-14    10s

Barrier solved model in 20 iterations and 9.59 seconds (5.78 work units)
Optimal objective 1.00000000e+00


Root crossover log...

    5122 DPushes remaining with DInf 0.0000000e+00                10s
       0 DPushes remaining with DInf 0.0000000e+00                10s

   32765 PPushes remaining with PInf 0.0000000e+00                10s
    5206 PPushes remaining with PInf 0.0000000e+00                10s
       0 PPushes remaining with PInf 0.0000000e+00                11s

  Push phase complete: Pinf 0.0000000e+00, Dinf 0.0000000e+00     11s


Root simplex log...

Iteration    Objective       Primal Inf.    Dual Inf.      Time
   32769    1.0000000e+00   0.000000e+00   0.000000e+00     11s
   32769    1.0000000e+00   0.000000e+00   0.000000e+00     11s
Concurrent spin time: 2.56s (can be avoided by choosing Method=3)

Solved with barrier

Root relaxation: objective 1.000000e+00, 32769 iterations, 7.98 seconds (4.44 work units)
Total elapsed time = 30.27s (DegenMoves)

    Nodes    |    Current Node    |     Objective Bounds      |     Work
 Expl Unexpl |  Obj  Depth IntInf | Incumbent    BestBd   Gap | It/Node Time

     0     0    1.00000    0 6727 -129399.47    1.00000   100%     -   30s
     0     2    1.00000    0 6727 -129399.47    1.00000   100%     -  162s
     1     4    1.00000    1 6725 -129399.47    1.00000   100%  7842  204s
     7    16    1.00000    3 6725 -129399.47    1.00000   100%  1122  205s
    15    32    1.00000    4 6725 -129399.47    1.00000   100%   525  304s
    31    64    1.00000    5 6726 -129399.47    1.00000   100%  2392  634s
H   36    64                    -125099.4674    1.00000   100%  2060  634s
H   37    64                       0.4320652    1.00000   131%  2136  634s
    63    96    1.00000    6 6733    0.43207    1.00000   131%  7035 1188s
H   95   128                       0.4329710    1.00000   131%  4798 1751s
   127   160    1.00000    8 6831    0.43297    1.00000   131%  3610 2542s
   159   192    1.00000    9 6879    0.43297    1.00000   131%  2913 3148s
   191   227    1.00000   10 6917    0.43297    1.00000   131%  2531 3225s
   226   316    1.00000   11 7063    0.43297    1.00000   131%  3349 3605s

Explored 315 nodes (841495 simplex iterations) in 3605.56 seconds (2678.64 work units)
Thread count was 32 (of 192 available processors)

Solution count 4: 0.432971 0.432065 -125099 -129399 

Time limit reached
Best objective 4.329710144929e-01, best bound 1.000000000000e+00, gap 130.9623%

User-callback calls 1885283, time in user-callback 10.28 sec
